p cnf 386 460
-15 -6 17 21 22 0
-15 -6 17 21 -22 0
-15 -6 17 -21 23 0
-15 -6 17 -21 -23 0
19 -11 -10 24 25 0
19 -11 -10 24 -25 0
19 -11 -10 -24 26 0
19 -11 -10 -24 -26 0
-2 11 -10 27 28 0
-2 11 -10 27 -28 0
-2 11 -10 -27 29 0
-2 11 -10 -27 -29 0
-2 11 -17 30 31 0
-2 11 -17 30 -31 0
-2 11 -17 -30 32 0
-2 11 -17 -30 -32 0
-6 -4 16 33 34 0
-6 -4 16 33 -34 0
-6 -4 16 -33 35 0
-6 -4 16 -33 -35 0
8 20 11 36 37 0
8 20 11 36 -37 0
8 20 11 -36 38 0
8 20 11 -36 -38 0
14 7 15 39 40 0
14 7 15 39 -40 0
14 7 15 -39 41 0
14 7 15 -39 -41 0
14 5 15 42 43 0
14 5 15 42 -43 0
14 5 15 -42 44 0
14 5 15 -42 -44 0
-3 4 -7 45 46 0
-3 4 -7 45 -46 0
-3 4 -7 -45 47 0
-3 4 -7 -45 -47 0
-19 5 -4 48 49 0
-19 5 -4 48 -49 0
-19 5 -4 -48 50 0
-19 5 -4 -48 -50 0
12 -7 19 51 52 0
12 -7 19 51 -52 0
12 -7 19 -51 53 0
12 -7 19 -51 -53 0
5 -12 20 54 55 0
5 -12 20 54 -55 0
5 -12 20 -54 56 0
5 -12 20 -54 -56 0
2 -5 20 57 58 0
2 -5 20 57 -58 0
2 -5 20 -57 59 0
2 -5 20 -57 -59 0
10 14 12 60 61 0
10 14 12 60 -61 0
10 14 12 -60 62 0
10 14 12 -60 -62 0
-3 -7 -6 63 64 0
-3 -7 -6 63 -64 0
-3 -7 -6 -63 65 0
-3 -7 -6 -63 -65 0
7 19 16 66 67 0
7 19 16 66 -67 0
7 19 16 -66 68 0
7 19 16 -66 -68 0
-15 14 -13 69 70 0
-15 14 -13 69 -70 0
-15 14 -13 -69 71 0
-15 14 -13 -69 -71 0
-19 3 16 72 73 0
-19 3 16 72 -73 0
-19 3 16 -72 74 0
-19 3 16 -72 -74 0
4 20 -15 75 76 0
4 20 -15 75 -76 0
4 20 -15 -75 77 0
4 20 -15 -75 -77 0
6 9 -2 78 79 0
6 9 -2 78 -79 0
6 9 -2 -78 80 0
6 9 -2 -78 -80 0
-8 1 -14 81 82 0
-8 1 -14 81 -82 0
-8 1 -14 -81 83 0
-8 1 -14 -81 -83 0
12 4 -7 84 85 0
12 4 -7 84 -85 0
12 4 -7 -84 86 0
12 4 -7 -84 -86 0
4 -8 -14 87 88 0
4 -8 -14 87 -88 0
4 -8 -14 -87 89 0
4 -8 -14 -87 -89 0
-5 -17 20 90 91 0
-5 -17 20 90 -91 0
-5 -17 20 -90 92 0
-5 -17 20 -90 -92 0
-16 6 -9 93 94 0
-16 6 -9 93 -94 0
-16 6 -9 -93 95 0
-16 6 -9 -93 -95 0
15 -14 -11 96 97 0
15 -14 -11 96 -97 0
15 -14 -11 -96 98 0
15 -14 -11 -96 -98 0
3 2 9 99 100 0
3 2 9 99 -100 0
3 2 9 -99 101 0
3 2 9 -99 -101 0
-10 -15 -20 102 103 0
-10 -15 -20 102 -103 0
-10 -15 -20 -102 104 0
-10 -15 -20 -102 -104 0
-15 10 -19 105 106 0
-15 10 -19 105 -106 0
-15 10 -19 -105 107 0
-15 10 -19 -105 -107 0
10 15 -9 108 109 0
10 15 -9 108 -109 0
10 15 -9 -108 110 0
10 15 -9 -108 -110 0
1 14 9 111 112 0
1 14 9 111 -112 0
1 14 9 -111 113 0
1 14 9 -111 -113 0
12 -7 -11 114 115 0
12 -7 -11 114 -115 0
12 -7 -11 -114 116 0
12 -7 -11 -114 -116 0
7 -2 13 117 118 0
7 -2 13 117 -118 0
7 -2 13 -117 119 0
7 -2 13 -117 -119 0
6 8 15 120 121 0
6 8 15 120 -121 0
6 8 15 -120 122 0
6 8 15 -120 -122 0
-3 -10 -18 123 124 0
-3 -10 -18 123 -124 0
-3 -10 -18 -123 125 0
-3 -10 -18 -123 -125 0
-9 17 -12 126 127 0
-9 17 -12 126 -127 0
-9 17 -12 -126 128 0
-9 17 -12 -126 -128 0
-5 -18 -3 129 130 0
-5 -18 -3 129 -130 0
-5 -18 -3 -129 131 0
-5 -18 -3 -129 -131 0
14 -5 17 132 133 0
14 -5 17 132 -133 0
14 -5 17 -132 134 0
14 -5 17 -132 -134 0
12 -16 -17 135 136 0
12 -16 -17 135 -136 0
12 -16 -17 -135 137 0
12 -16 -17 -135 -137 0
9 -1 7 138 139 0
9 -1 7 138 -139 0
9 -1 7 -138 140 0
9 -1 7 -138 -140 0
-4 20 -16 141 142 0
-4 20 -16 141 -142 0
-4 20 -16 -141 143 0
-4 20 -16 -141 -143 0
-20 3 15 144 145 0
-20 3 15 144 -145 0
-20 3 15 -144 146 0
-20 3 15 -144 -146 0
-8 -5 -7 147 148 0
-8 -5 -7 147 -148 0
-8 -5 -7 -147 149 0
-8 -5 -7 -147 -149 0
5 10 12 150 151 0
5 10 12 150 -151 0
5 10 12 -150 152 0
5 10 12 -150 -152 0
19 -8 -16 153 154 0
19 -8 -16 153 -154 0
19 -8 -16 -153 155 0
19 -8 -16 -153 -155 0
-8 18 -4 156 157 0
-8 18 -4 156 -157 0
-8 18 -4 -156 158 0
-8 18 -4 -156 -158 0
14 5 11 159 160 0
14 5 11 159 -160 0
14 5 11 -159 161 0
14 5 11 -159 -161 0
-17 10 7 162 163 0
-17 10 7 162 -163 0
-17 10 7 -162 164 0
-17 10 7 -162 -164 0
15 13 5 165 166 0
15 13 5 165 -166 0
15 13 5 -165 167 0
15 13 5 -165 -167 0
9 -17 -7 168 169 0
9 -17 -7 168 -169 0
9 -17 -7 -168 170 0
9 -17 -7 -168 -170 0
-5 -12 -19 171 172 0
-5 -12 -19 171 -172 0
-5 -12 -19 -171 173 0
-5 -12 -19 -171 -173 0
12 19 6 174 175 0
12 19 6 174 -175 0
12 19 6 -174 176 0
12 19 6 -174 -176 0
17 -14 -13 177 178 0
17 -14 -13 177 -178 0
17 -14 -13 -177 179 0
17 -14 -13 -177 -179 0
2 -11 8 180 181 0
2 -11 8 180 -181 0
2 -11 8 -180 182 0
2 -11 8 -180 -182 0
-9 20 -5 183 184 0
-9 20 -5 183 -184 0
-9 20 -5 -183 185 0
-9 20 -5 -183 -185 0
11 12 10 186 187 0
11 12 10 186 -187 0
11 12 10 -186 188 0
11 12 10 -186 -188 0
2 3 -10 189 190 0
2 3 -10 189 -190 0
2 3 -10 -189 191 0
2 3 -10 -189 -191 0
18 -20 9 192 193 0
18 -20 9 192 -193 0
18 -20 9 -192 194 0
18 -20 9 -192 -194 0
-6 -8 -11 195 196 0
-6 -8 -11 195 -196 0
-6 -8 -11 -195 197 0
-6 -8 -11 -195 -197 0
-1 17 4 198 199 0
-1 17 4 198 -199 0
-1 17 4 -198 200 0
-1 17 4 -198 -200 0
-7 15 -13 201 202 0
-7 15 -13 201 -202 0
-7 15 -13 -201 203 0
-7 15 -13 -201 -203 0
1 6 19 204 205 0
1 6 19 204 -205 0
1 6 19 -204 206 0
1 6 19 -204 -206 0
6 5 -15 207 208 0
6 5 -15 207 -208 0
6 5 -15 -207 209 0
6 5 -15 -207 -209 0
14 10 8 210 211 0
14 10 8 210 -211 0
14 10 8 -210 212 0
14 10 8 -210 -212 0
6 4 -10 213 214 0
6 4 -10 213 -214 0
6 4 -10 -213 215 0
6 4 -10 -213 -215 0
8 1 5 216 217 0
8 1 5 216 -217 0
8 1 5 -216 218 0
8 1 5 -216 -218 0
-4 -10 19 219 220 0
-4 -10 19 219 -220 0
-4 -10 19 -219 221 0
-4 -10 19 -219 -221 0
-20 1 -9 222 223 0
-20 1 -9 222 -223 0
-20 1 -9 -222 224 0
-20 1 -9 -222 -224 0
-11 3 20 225 226 0
-11 3 20 225 -226 0
-11 3 20 -225 227 0
-11 3 20 -225 -227 0
-5 -13 -10 228 229 0
-5 -13 -10 228 -229 0
-5 -13 -10 -228 230 0
-5 -13 -10 -228 -230 0
-7 1 17 231 232 0
-7 1 17 231 -232 0
-7 1 17 -231 233 0
-7 1 17 -231 -233 0
12 8 10 234 235 0
12 8 10 234 -235 0
12 8 10 -234 236 0
12 8 10 -234 -236 0
14 -1 -6 237 238 0
14 -1 -6 237 -238 0
14 -1 -6 -237 239 0
14 -1 -6 -237 -239 0
-13 5 17 240 241 0
-13 5 17 240 -241 0
-13 5 17 -240 242 0
-13 5 17 -240 -242 0
19 8 16 243 244 0
19 8 16 243 -244 0
19 8 16 -243 245 0
19 8 16 -243 -245 0
6 -9 -10 246 247 0
6 -9 -10 246 -247 0
6 -9 -10 -246 248 0
6 -9 -10 -246 -248 0
-3 11 2 249 250 0
-3 11 2 249 -250 0
-3 11 2 -249 251 0
-3 11 2 -249 -251 0
17 -14 -4 252 253 0
17 -14 -4 252 -253 0
17 -14 -4 -252 254 0
17 -14 -4 -252 -254 0
-17 9 3 255 256 0
-17 9 3 255 -256 0
-17 9 3 -255 257 0
-17 9 3 -255 -257 0
-16 1 -14 258 259 0
-16 1 -14 258 -259 0
-16 1 -14 -258 260 0
-16 1 -14 -258 -260 0
20 -15 5 261 262 0
20 -15 5 261 -262 0
20 -15 5 -261 263 0
20 -15 5 -261 -263 0
4 18 -15 264 265 0
4 18 -15 264 -265 0
4 18 -15 -264 266 0
4 18 -15 -264 -266 0
9 7 -13 267 268 0
9 7 -13 267 -268 0
9 7 -13 -267 269 0
9 7 -13 -267 -269 0
-5 -14 -17 270 271 0
-5 -14 -17 270 -271 0
-5 -14 -17 -270 272 0
-5 -14 -17 -270 -272 0
15 13 4 273 274 0
15 13 4 273 -274 0
15 13 4 -273 275 0
15 13 4 -273 -275 0
-18 -13 -14 276 277 0
-18 -13 -14 276 -277 0
-18 -13 -14 -276 278 0
-18 -13 -14 -276 -278 0
11 1 -6 279 280 0
11 1 -6 279 -280 0
11 1 -6 -279 281 0
11 1 -6 -279 -281 0
-2 17 -19 282 283 0
-2 17 -19 282 -283 0
-2 17 -19 -282 284 0
-2 17 -19 -282 -284 0
5 -18 7 285 286 0
5 -18 7 285 -286 0
5 -18 7 -285 287 0
5 -18 7 -285 -287 0
17 -14 5 288 289 0
17 -14 5 288 -289 0
17 -14 5 -288 290 0
17 -14 5 -288 -290 0
-18 10 16 291 292 0
-18 10 16 291 -292 0
-18 10 16 -291 293 0
-18 10 16 -291 -293 0
294 295 297 301 309 0
294 295 297 301 -309 0
294 295 297 -301 310 0
294 295 297 -301 -310 0
294 295 -297 302 311 0
294 295 -297 302 -311 0
294 295 -297 -302 312 0
294 295 -297 -302 -312 0
294 -295 298 303 313 0
294 -295 298 303 -313 0
294 -295 298 -303 314 0
294 -295 298 -303 -314 0
294 -295 -298 304 315 0
294 -295 -298 304 -315 0
294 -295 -298 -304 316 0
294 -295 -298 -304 -316 0
-294 296 299 305 317 0
-294 296 299 305 -317 0
-294 296 299 -305 318 0
-294 296 299 -305 -318 0
-294 296 -299 306 319 0
-294 296 -299 306 -319 0
-294 296 -299 -306 320 0
-294 296 -299 -306 -320 0
-294 -296 300 307 321 0
-294 -296 300 307 -321 0
-294 -296 300 -307 322 0
-294 -296 300 -307 -322 0
-294 -296 -300 308 323 0
-294 -296 -300 308 -323 0
-294 -296 -300 -308 324 0
-294 -296 -300 -308 -324 0
325 326 328 332 340 0
325 326 328 332 -340 0
325 326 328 -332 341 0
325 326 328 -332 -341 0
325 326 -328 333 342 0
325 326 -328 333 -342 0
325 326 -328 -333 343 0
325 326 -328 -333 -343 0
325 -326 329 334 344 0
325 -326 329 334 -344 0
325 -326 329 -334 345 0
325 -326 329 -334 -345 0
325 -326 -329 335 346 0
325 -326 -329 335 -346 0
325 -326 -329 -335 347 0
325 -326 -329 -335 -347 0
-325 327 330 336 348 0
-325 327 330 336 -348 0
-325 327 330 -336 349 0
-325 327 330 -336 -349 0
-325 327 -330 337 350 0
-325 327 -330 337 -350 0
-325 327 -330 -337 351 0
-325 327 -330 -337 -351 0
-325 -327 331 338 352 0
-325 -327 331 338 -352 0
-325 -327 331 -338 353 0
-325 -327 331 -338 -353 0
-325 -327 -331 339 354 0
-325 -327 -331 339 -354 0
-325 -327 -331 -339 355 0
-325 -327 -331 -339 -355 0
356 357 359 363 371 0
356 357 359 363 -371 0
356 357 359 -363 372 0
356 357 359 -363 -372 0
356 357 -359 364 373 0
356 357 -359 364 -373 0
356 357 -359 -364 374 0
356 357 -359 -364 -374 0
356 -357 360 365 375 0
356 -357 360 365 -375 0
356 -357 360 -365 376 0
356 -357 360 -365 -376 0
356 -357 -360 366 377 0
356 -357 -360 366 -377 0
356 -357 -360 -366 378 0
356 -357 -360 -366 -378 0
-356 358 361 367 379 0
-356 358 361 367 -379 0
-356 358 361 -367 380 0
-356 358 361 -367 -380 0
-356 358 -361 368 381 0
-356 358 -361 368 -381 0
-356 358 -361 -368 382 0
-356 358 -361 -368 -382 0
-356 -358 362 369 383 0
-356 -358 362 369 -383 0
-356 -358 362 -369 384 0
-356 -358 362 -369 -384 0
-356 -358 -362 370 385 0
-356 -358 -362 370 -385 0
-356 -358 -362 -370 386 0
-356 -358 -362 -370 -386 0

